solution status: optimal solution found
objective value:                              3460000
uf_1                                                1 	(obj:0)
uf_2                                                1 	(obj:0)
uf_3                                                1 	(obj:0)
uf_4                                                1 	(obj:0)
uf_5                                                1 	(obj:0)
uf_6                                                1 	(obj:0)
uf_7                                                1 	(obj:0)
uf_8                                                1 	(obj:0)
uf_9                                                1 	(obj:0)
uf_10                                               1 	(obj:0)
uf_11                                               1 	(obj:0)
uf_12                                               1 	(obj:0)
uf_13                                               1 	(obj:0)
uf_14                                               1 	(obj:0)
uf_15                                               1 	(obj:0)
uf_16                                               1 	(obj:0)
uf_17                                               1 	(obj:0)
uf_18                                               1 	(obj:0)
uf_19                                               1 	(obj:0)
uf_20                                               1 	(obj:0)
uf_41                                               1 	(obj:0)
uf_42                                               1 	(obj:0)
uf_43                                               1 	(obj:0)
uf_44                                               1 	(obj:0)
uf_45                                               1 	(obj:0)
uf_46                                               1 	(obj:0)
uf_47                                               1 	(obj:0)
uf_48                                               1 	(obj:0)
uf_49                                               1 	(obj:0)
uf_50                                               1 	(obj:0)
uf_51                                               1 	(obj:0)
uf_52                                               1 	(obj:0)
uf_53                                               1 	(obj:0)
uf_54                                               1 	(obj:0)
uf_55                                               1 	(obj:0)
uf_56                                               1 	(obj:0)
uf_57                                               1 	(obj:0)
uf_58                                               1 	(obj:0)
uf_59                                               1 	(obj:0)
uf_60                                               1 	(obj:0)
uf_81                                               1 	(obj:0)
uf_82                                               1 	(obj:0)
uf_83                                               1 	(obj:0)
uf_84                                               1 	(obj:0)
uf_85                                               1 	(obj:0)
uf_86                                               1 	(obj:0)
uf_87                                               1 	(obj:0)
uf_88                                               1 	(obj:0)
uf_89                                               1 	(obj:0)
uf_90                                               1 	(obj:0)
uf_91                                               1 	(obj:0)
uf_92                                               1 	(obj:0)
uf_93                                               1 	(obj:0)
uf_94                                               1 	(obj:0)
uf_95                                               1 	(obj:0)
uf_96                                               1 	(obj:0)
uf_97                                               1 	(obj:0)
uf_98                                               1 	(obj:0)
uf_99                                               1 	(obj:0)
uf_100                                              1 	(obj:0)
uf_121                                              1 	(obj:0)
uf_122                                              1 	(obj:0)
uf_123                                              1 	(obj:0)
uf_124                                              1 	(obj:0)
uf_125                                              1 	(obj:0)
uf_126                                              1 	(obj:0)
uf_127                                              1 	(obj:0)
uf_128                                              1 	(obj:0)
uf_129                                              1 	(obj:0)
uf_130                                              1 	(obj:0)
uf_131                                              1 	(obj:0)
uf_132                                              1 	(obj:0)
uf_133                                              1 	(obj:0)
uf_134                                              1 	(obj:0)
uf_135                                              1 	(obj:0)
uf_136                                              1 	(obj:0)
uf_137                                              1 	(obj:0)
uf_138                                              1 	(obj:0)
uf_139                                              1 	(obj:0)
uf_140                                              1 	(obj:0)
uf_161                                              1 	(obj:0)
uf_162                                              1 	(obj:0)
uf_163                                              1 	(obj:0)
uf_164                                              1 	(obj:0)
uf_165                                              1 	(obj:0)
uf_166                                              1 	(obj:0)
uf_167                                              1 	(obj:0)
uf_168                                              1 	(obj:0)
uf_169                                              1 	(obj:0)
uf_170                                              1 	(obj:0)
uf_171                                              1 	(obj:0)
uf_172                                              1 	(obj:0)
uf_173                                              1 	(obj:0)
uf_174                                              1 	(obj:0)
uf_175                                              1 	(obj:0)
uf_176                                              1 	(obj:0)
uf_177                                              1 	(obj:0)
uf_178                                              1 	(obj:0)
uf_179                                              1 	(obj:0)
uf_180                                              1 	(obj:0)
uf_201                                              1 	(obj:0)
uf_202                                              1 	(obj:0)
uf_203                                              1 	(obj:0)
uf_204                                              1 	(obj:0)
uf_205                                              1 	(obj:0)
uf_206                                              1 	(obj:0)
uf_207                                              1 	(obj:0)
uf_208                                              1 	(obj:0)
uf_209                                              1 	(obj:0)
uf_210                                              1 	(obj:0)
uf_211                                              1 	(obj:0)
uf_212                                              1 	(obj:0)
uf_213                                              1 	(obj:0)
uf_214                                              1 	(obj:0)
uf_215                                              1 	(obj:0)
uf_216                                              1 	(obj:0)
uf_217                                              1 	(obj:0)
uf_218                                              1 	(obj:0)
uf_219                                              1 	(obj:0)
uf_220                                              1 	(obj:0)
uf_241                                              1 	(obj:0)
uf_242                                              1 	(obj:0)
uf_243                                              1 	(obj:0)
uf_244                                              1 	(obj:0)
uf_245                                              1 	(obj:0)
uf_246                                              1 	(obj:0)
uf_247                                              1 	(obj:0)
uf_248                                              1 	(obj:0)
uf_249                                              1 	(obj:0)
uf_250                                              1 	(obj:0)
uf_251                                              1 	(obj:0)
uf_252                                              1 	(obj:0)
uf_253                                              1 	(obj:0)
uf_254                                              1 	(obj:0)
uf_255                                              1 	(obj:0)
uf_256                                              1 	(obj:0)
uf_257                                              1 	(obj:0)
uf_258                                              1 	(obj:0)
uf_259                                              1 	(obj:0)
uf_260                                              1 	(obj:0)
uf_281                                              1 	(obj:0)
uf_282                                              1 	(obj:0)
uf_283                                              1 	(obj:0)
uf_284                                              1 	(obj:0)
uf_285                                              1 	(obj:0)
uf_286                                              1 	(obj:0)
uf_287                                              1 	(obj:0)
uf_288                                              1 	(obj:0)
uf_289                                              1 	(obj:0)
uf_290                                              1 	(obj:0)
uf_291                                              1 	(obj:0)
uf_292                                              1 	(obj:0)
uf_293                                              1 	(obj:0)
uf_294                                              1 	(obj:0)
uf_295                                              1 	(obj:0)
uf_296                                              1 	(obj:0)
uf_297                                              1 	(obj:0)
uf_298                                              1 	(obj:0)
uf_299                                              1 	(obj:0)
uf_300                                              1 	(obj:0)
uf_321                                              1 	(obj:0)
uf_322                                              1 	(obj:0)
uf_323                                              1 	(obj:0)
uf_324                                              1 	(obj:0)
uf_325                                              1 	(obj:0)
uf_326                                              1 	(obj:0)
uf_327                                              1 	(obj:0)
uf_328                                              1 	(obj:0)
uf_329                                              1 	(obj:0)
uf_330                                              1 	(obj:0)
uf_361                                              1 	(obj:0)
uf_362                                              1 	(obj:0)
uf_363                                              1 	(obj:0)
uf_364                                              1 	(obj:0)
uf_365                                              1 	(obj:0)
uf_366                                              1 	(obj:0)
uf_367                                              1 	(obj:0)
uf_368                                              1 	(obj:0)
uf_369                                              1 	(obj:0)
uf_370                                              1 	(obj:0)
uf_401                                              1 	(obj:0)
uf_402                                              1 	(obj:0)
uf_403                                              1 	(obj:0)
uf_404                                              1 	(obj:0)
uf_405                                              1 	(obj:0)
uf_406                                              1 	(obj:0)
uf_407                                              1 	(obj:0)
uf_408                                              1 	(obj:0)
uf_409                                              1 	(obj:0)
uf_410                                              1 	(obj:0)
uf_441                                              1 	(obj:0)
uf_442                                              1 	(obj:0)
uf_443                                              1 	(obj:0)
uf_444                                              1 	(obj:0)
uf_445                                              1 	(obj:0)
uf_446                                              1 	(obj:0)
uf_447                                              1 	(obj:0)
uf_448                                              1 	(obj:0)
uf_449                                              1 	(obj:0)
uf_450                                              1 	(obj:0)
ud_1                                               20 	(obj:1000)
ud_2                                              250 	(obj:1000)
ud_3                                              250 	(obj:1000)
ud_4                                              250 	(obj:1000)
ud_5                                               75 	(obj:1000)
ud_6                                               20 	(obj:1000)
ud_7                                               20 	(obj:1000)
ud_8                                              250 	(obj:1000)
ud_9                                              250 	(obj:1000)
ud_10                                             250 	(obj:1000)
ud_11                                              75 	(obj:1000)
ud_12                                              20 	(obj:1000)
ud_13                                              20 	(obj:1000)
ud_14                                             250 	(obj:1000)
ud_15                                             250 	(obj:1000)
ud_16                                             250 	(obj:1000)
ud_17                                              75 	(obj:1000)
ud_18                                              20 	(obj:1000)
ud_19                                              20 	(obj:1000)
ud_20                                             250 	(obj:1000)
ud_21                                             250 	(obj:1000)
ud_22                                             250 	(obj:1000)
ud_23                                              75 	(obj:1000)
ud_24                                              20 	(obj:1000)
